219
9101
1912
1319
1189
811
8201
2311
918
12
8321
8310
8201
92
831
2812
911
8012
193
218
8931
118
1911
2193
1292
813
211
2112
2198
2130
113
8302
3182
8312
1123
8111
1311
9111
1301
101
1128
832
122
121
1913
1182
1120
9132
121
1231
318
891
8112
181
8109
8112
2131
219
8193
1211
802
9320
1320
1198
1283
1312
2301
9118
1801
1193
1211
3912
3101
2281
121
1911
1082
1829
1819
211
1209
1013
8139
2231
1812
9018
1211
2131
811
1031
1192
2113
9221
9812
1029
100
2121
9831
911
2813
